# Objective value = 111
WA1n 0
WA1p 0
WA2n 0
WA2p 1
WB1n 0
WB1p 1
WC1n 0
WC1p 1
WD1n 0
WD1p 1
WE1n 0
WE1p 1
WF1n 0
WF1p 1
WG1n 0
WG1p 1
WH1n 0
WH1p 1
WI1n 0
WI1p 1
WJ1n 0
WJ1p 1
WK1n 0
WK1p 1
WL1n 0
WL1p 10
WM1n 0
WM1p 10
WM2n 0
WM2p 1
WN1n 20
WN1p 0
WN2n 1
WN2p 0
WO1n 0
WO1p 20
WO2n 0
WO2p 1
WT1n 0
WT1p 31
WT2n 0
WT2p 1
5 7
a 0
b 1
c 1
d 1
e 1
f 1
g 1
h 1
i 1
j 1
k 1
l 1
m 1
n 1
o 1
p 0
q 0
r 1
s 1
t 1
u 1
